data/CVRPLIB/Vrp-Set-XML100/instances/XML100_3115_03.vrp
NAME : XML100_3115_03
COMMENT : Generated by Queiroga, Sadykov, Uchoa, and Vidal (2021)
TYPE : CVRP
DIMENSION : 101
EDGE_WEIGHT_TYPE : EUC_2D
CAPACITY : 19
NODE_COORD_SECTION
1    0    0   
2    345  824 
3    155  695 
4    584  771 
5    710  242 
6    679  160 
7    323  534 
8    980  536 
9    984  528 
10   120  889 
11   495  939 
12   547  467 
13   603  855 
14   301  780 
15   447  868 
16   721  382 
17   829  140 
18   173  135 
19   691  211 
20   158  369 
21   452  141 
22   630  964 
23   251  741 
24   722  675 
25   697  17  
26   904  256 
27   761  601 
28   221  258 
29   100  694 
30   874  918 
31   503  952 
32   16   401 
33   805  836 
34   469  160 
35   206  932 
36   637  405 
37   936  445 
38   994  460 
39   863  65  
40   798  581 
41   234  656 
42   302  751 
43   123  542 
44   996  546 
45   692  283 
46   228  736 
47   505  400 
48   367  60  
49   520  264 
50   539  996 
51   380  800 
52   416  351 
53   800  269 
54   311  791 
55   713  272 
56   807  210 
57   105  481 
58   971  41  
59   885  872 
60   642  985 
61   340  108 
62   231  410 
63   413  414 
64   796  956 
65   807  787 
66   933  239 
67   908  764 
68   214  508 
69   938  943 
70   958  567 
71   478  262 
72   989  984 
73   194  101 
74   263  701 
75   625  229 
76   955  468 
77   706  828 
78   553  9   
79   145  674 
80   252  642 
81   31   981 
82   421  744 
83   404  524 
84   653  610 
85   951  799 
86   398  839 
87   344  462 
88   81   216 
89   989  752 
90   490  422 
91   797  626 
92   628  97  
93   845  253 
94   654  949 
95   521  737 
96   388  979 
97   913  0   
98   513  402 
99   361  126 
100  455  796 
101  119  678 
DEMAND_SECTION
1    0   
2    1   
3    1   
4    1   
5    1   
6    1   
7    1   
8    1   
9    1   
10   1   
11   1   
12   1   
13   1   
14   1   
15   1   
16   1   
17   1   
18   1   
19   1   
20   1   
21   1   
22   1   
23   1   
24   1   
25   1   
26   1   
27   1   
28   1   
29   1   
30   1   
31   1   
32   1   
33   1   
34   1   
35   1   
36   1   
37   1   
38   1   
39   1   
40   1   
41   1   
42   1   
43   1   
44   1   
45   1   
46   1   
47   1   
48   1   
49   1   
50   1   
51   1   
52   1   
53   1   
54   1   
55   1   
56   1   
57   1   
58   1   
59   1   
60   1   
61   1   
62   1   
63   1   
64   1   
65   1   
66   1   
67   1   
68   1   
69   1   
70   1   
71   1   
72   1   
73   1   
74   1   
75   1   
76   1   
77   1   
78   1   
79   1   
80   1   
81   1   
82   1   
83   1   
84   1   
85   1   
86   1   
87   1   
88   1   
89   1   
90   1   
91   1   
92   1   
93   1   
94   1   
95   1   
96   1   
97   1   
98   1   
99   1   
100  1   
101  1   
DEPOT_SECTION
1
-1
EOF
