data/CVRPLIB/Vrp-Set-XML100/solutions/XML100_3115_03.sol
Route #1: 77 24 96 57 38 16 55 65 25 92 52 54 44 4 18 5 91 33 20
Route #2: 87 19 67 79 40 73 41 50 85 1 53 13 22 45 2 78 100 42 56
Route #3: 47 98 60 72 17
Route #4: 86 82 94 3 76 32 63 29 71 68 58 84 88 66 64 23 83 11 62
Route #5: 27 61 6 81 99 14 12 93 21 59 49 30 10 95 34 80 9 28 31
Route #6: 70 48 74 15 36 75 37 8 7 43 69 39 90 26 35 97 46 89 51
Cost 14192
